\ENCODING=ISO-8859-1
\Problem name: IloCplex

Minimize
 obj1: 1.15723271923579 x1 - 0.157232719235791 x2 + 1.15723271923579 x3
       - 0.157232719235791 x4 + 1.15723268956924 x5 - 0.157232689569243 x6
       + 1.15723268956924 x7 - 0.157232689569243 x8 + 1.15723271923579 x9
       - 0.157232719235791 x10 + 1.15723268956924 x11 - 0.157232689569243 x12
       + 1.67087942691516 x13 - 0.670879426915164 x14 + 1.15723271923579 x15
       - 0.157232719235791 x16 + 1.33251699460844 x17 - 0.332516994608435 x18
       + 1.15723271923579 x19 - 0.157232719235791 x20 + 1.15723268956924 x21
       - 0.157232689569243 x22 + 13.0290193557739
Subject To
 c1:   x2 >= 49.6967799360367
 c2:   x4 >= 56.3529198668008
 c3:   x6 >= 50.3329410779946
 c4:   x8 >= 58.9659845900767
 c5:   x10 >= 57.7385198128568
 c6:   x12 >= 55.6283368886957
 c7:   x14 >= 50.4181899012915
 c8:   x16 >= 56.8141008343937
 c9:   x18 >= 54.1734867497109
 c10:  x20 >= 57.6528478264996
 c11:  x22 >= 57.7083248755889
 c12:  0.157232719235791 x1 + 0.842767280764209 x2 - x20 <= -1
 c13:  0.157232689569243 x5 + 0.842767310430757 x6 - x8 <= -1
 c14:  x1 - x2 >= 3.1799997
 c15:  x1 - x2 <= 10.599999
 c16:  x3 - x4 >= 3.1799997
 c17:  x3 - x4 <= 10.599999
 c18:  x5 - x6 >= 3.1800003
 c19:  x5 - x6 <= 10.600001
 c20:  x7 - x8 >= 3.1800003
 c21:  x7 - x8 <= 10.600001
 c22:  x9 - x10 >= 3.1799997
 c23:  x9 - x10 <= 10.599999
 c24:  x11 - x12 >= 3.1800003
 c25:  x11 - x12 <= 10.600001
 c26:  x13 - x14 >= 1.5079644
 c27:  x13 - x14 <= 5.026548
 c28:  x15 - x16 >= 3.1799997
 c29:  x15 - x16 <= 10.599999
 c30:  x17 - x18 >= 3.0159285
 c31:  x17 - x18 <= 10.053095
 c32:  x19 - x20 >= 3.1799997
 c33:  x19 - x20 <= 10.599999
 c34:  x21 - x22 >= 3.1800003
 c35:  x21 - x22 <= 10.600001
 c36:  - 9.6 x1 - 22.199997 x2 + 31.799997 x23  = 0
 c37:  - 12.6 x1 - 19.199997 x2 + 31.799997 x24  = 0
 c38:  - 15.172311 x1 - 16.627686 x2 + 31.799997 x25  = 0
 c39:  - 16.627686 x1 - 15.172311 x2 + 31.799997 x26  = 0
 c40:  - 19.199997 x1 - 12.6 x2 + 31.799997 x27  = 0
 c41:  - 22.199997 x1 - 9.6 x2 + 31.799997 x28  = 0
 c42:  - 9.6 x3 - 22.199997 x4 + 31.799997 x29  = 0
 c43:  - 12.6 x3 - 19.199997 x4 + 31.799997 x30  = 0
 c44:  - 15.172311 x3 - 16.627686 x4 + 31.799997 x31  = 0
 c45:  - 16.627686 x3 - 15.172311 x4 + 31.799997 x32  = 0
 c46:  - 19.199997 x3 - 12.6 x4 + 31.799997 x33  = 0
 c47:  - 22.199997 x3 - 9.6 x4 + 31.799997 x34  = 0
 c48:  - 9.6 x5 - 22.200003 x6 + 31.800003 x35  = 0
 c49:  - 12.6 x5 - 19.200003 x6 + 31.800003 x36  = 0
 c50:  - 14.487237 x5 - 17.312766 x6 + 31.800003 x37  = 0
 c51:  - 17.312766 x5 - 14.487237 x6 + 31.800003 x38  = 0
 c52:  - 19.200003 x5 - 12.6 x6 + 31.800003 x39  = 0
 c53:  - 22.200003 x5 - 9.6 x6 + 31.800003 x40  = 0
 c54:  - 9.6 x7 - 22.200003 x8 + 31.800003 x41  = 0
 c55:  - 12.6 x7 - 19.200003 x8 + 31.800003 x42  = 0
 c56:  - 14.487237 x7 - 17.312766 x8 + 31.800003 x43  = 0
 c57:  - 17.312766 x7 - 14.487237 x8 + 31.800003 x44  = 0
 c58:  - 19.200003 x7 - 12.6 x8 + 31.800003 x45  = 0
 c59:  - 22.200003 x7 - 9.6 x8 + 31.800003 x46  = 0
 c60:  - 9.6 x9 - 22.199997 x10 + 31.799997 x47  = 0
 c61:  - 12.6 x9 - 19.199997 x10 + 31.799997 x48  = 0
 c62:  - 15.172311 x9 - 16.627686 x10 + 31.799997 x49  = 0
 c63:  - 16.627686 x9 - 15.172311 x10 + 31.799997 x50  = 0
 c64:  - 19.199997 x9 - 12.6 x10 + 31.799997 x51  = 0
 c65:  - 22.199997 x9 - 9.6 x10 + 31.799997 x52  = 0
 c66:  - 9.6 x11 - 22.200003 x12 + 31.800003 x53  = 0
 c67:  - 12.6 x11 - 19.200003 x12 + 31.800003 x54  = 0
 c68:  - 14.487237 x11 - 17.312766 x12 + 31.800003 x55  = 0
 c69:  - 17.312766 x11 - 14.487237 x12 + 31.800003 x56  = 0
 c70:  - 19.200003 x11 - 12.6 x12 + 31.800003 x57  = 0
 c71:  - 22.200003 x11 - 9.6 x12 + 31.800003 x58  = 0
 c72:  - 9.6 x15 - 22.199997 x16 + 31.799997 x59  = 0
 c73:  - 12.6 x15 - 19.199997 x16 + 31.799997 x60  = 0
 c74:  - 15.172311 x15 - 16.627686 x16 + 31.799997 x61  = 0
 c75:  - 16.627686 x15 - 15.172311 x16 + 31.799997 x62  = 0
 c76:  - 19.199997 x15 - 12.6 x16 + 31.799997 x63  = 0
 c77:  - 22.199997 x15 - 9.6 x16 + 31.799997 x64  = 0
 c78:  - 10.053096 x17 - 20.106189 x18 + 30.159285 x65  = 0
 c79:  - 11.424804 x17 - 18.734481 x18 + 30.159285 x66  = 0
 c80:  - 13.744089 x17 - 16.415196 x18 + 30.159285 x67  = 0
 c81:  - 16.415196 x17 - 13.744089 x18 + 30.159285 x68  = 0
 c82:  - 18.734481 x17 - 11.424804 x18 + 30.159285 x69  = 0
 c83:  - 20.106189 x17 - 10.053096 x18 + 30.159285 x70  = 0
 c84:  - 9.6 x19 - 22.199997 x20 + 31.799997 x71  = 0
 c85:  - 12.6 x19 - 19.199997 x20 + 31.799997 x72  = 0
 c86:  - 15.172311 x19 - 16.627686 x20 + 31.799997 x73  = 0
 c87:  - 16.627686 x19 - 15.172311 x20 + 31.799997 x74  = 0
 c88:  - 19.199997 x19 - 12.6 x20 + 31.799997 x75  = 0
 c89:  - 22.199997 x19 - 9.6 x20 + 31.799997 x76  = 0
 c90:  - 9.6 x21 - 22.200003 x22 + 31.800003 x77  = 0
 c91:  - 12.6 x21 - 19.200003 x22 + 31.800003 x78  = 0
 c92:  - 14.487237 x21 - 17.312766 x22 + 31.800003 x79  = 0
 c93:  - 17.312766 x21 - 14.487237 x22 + 31.800003 x80  = 0
 c94:  - 19.200003 x21 - 12.6 x22 + 31.800003 x81  = 0
 c95:  - 22.200003 x21 - 9.6 x22 + 31.800003 x82  = 0
 c96:  0.157232719235791 x1 - 0.157232719235791 x2 + x23 - x34 + 10000 x83
       <= 9999
 c97:  0.157232719235791 x1 - 0.157232719235791 x2 + x24 - x40 + 10000 x84
       <= 9999
 c98:  0.157232719235791 x1 - 0.157232719235791 x2 + x24 - x46 + 10000 x85
       <= 9999
 c99:  0.157232719235791 x1 - 0.157232719235791 x2 + x28 - x47 + 10000 x86
       <= 9999
 c100: 0.157232719235791 x1 - 0.157232719235791 x2 + x27 - x53 + 10000 x87
       <= 9999
 c101: 0.157232719235791 x1 - 0.157232719235791 x2 + x25 - x70 + 10000 x88
       <= 9999
 c102: 0.157232719235791 x3 - 0.157232719235791 x4 - x23 + x34 + 10000 x89
       <= 9999
 c103: 0.157232719235791 x3 - 0.157232719235791 x4 + x29 - x64 + 10000 x90
       <= 9999
 c104: 0.157232719235791 x3 - 0.157232719235791 x4 + x34 - x71 + 10000 x91
       <= 9999
 c105: 0.157232719235791 x3 - 0.157232719235791 x4 + x33 - x77 + 10000 x92
       <= 9999
 c106: 0.157232689569243 x5 - 0.157232689569243 x6 - x24 + x40 + 10000 x93
       <= 9999
 c107: 0.157232689569243 x5 - 0.157232689569243 x6 + x35 - x63 + 10000 x94
       <= 9999
 c108: 1.15723268956924 x5 - 0.157232689569243 x6 - x17 + 10000 x95 <= 9999
 c109: 0.157232689569243 x5 - 0.157232689569243 x6 + x40 - x72 + 10000 x96
       <= 9999
 c110: 0.157232689569243 x5 - 0.157232689569243 x6 + x39 - x78 + 10000 x97
       <= 9999
 c111: 0.157232689569243 x7 - 0.157232689569243 x8 - x24 + x46 + 10000 x98
       <= 9999
 c112: 0.157232689569243 x7 - 0.157232689569243 x8 + x41 - x63 + 10000 x99
       <= 9999
 c113: 1.15723268956924 x7 - 0.157232689569243 x8 - x17 + 10000 x100 <= 9999
 c114: 0.157232689569243 x7 - 0.157232689569243 x8 + x46 - x72 + 10000 x101
       <= 9999
 c115: 0.157232689569243 x7 - 0.157232689569243 x8 + x45 - x78 + 10000 x102
       <= 9999
 c116: 0.157232719235791 x9 - 0.157232719235791 x10 - x28 + x47 + 10000 x103
       <= 9999
 c117: 1.15723271923579 x9 - 0.157232719235791 x10 - x13 + 10000 x104 <= 9999
 c118: 0.157232719235791 x9 - 0.157232719235791 x10 + x52 - x59 + 10000 x105
       <= 9999
 c119: 0.157232719235791 x9 - 0.157232719235791 x10 + x50 - x65 + 10000 x106
       <= 9999
 c120: 0.157232719235791 x9 - 0.157232719235791 x10 + x47 - x76 + 10000 x107
       <= 9999
 c121: 0.157232719235791 x9 - 0.157232719235791 x10 + x48 - x82 + 10000 x108
       <= 9999
 c122: 0.157232689569243 x11 - 0.157232689569243 x12 - x27 + x53 + 10000 x109
       <= 9999
 c123: 0.157232689569243 x11 - 0.157232689569243 x12 + x58 - x60 + 10000 x110
       <= 9999
 c124: 0.157232689569243 x11 - 0.157232689569243 x12 + x55 - x67 + 10000 x111
       <= 9999
 c125: 0.157232689569243 x11 - 0.157232689569243 x12 + x53 - x75 + 10000 x112
       <= 9999
 c126: 0.157232689569243 x11 - 0.157232689569243 x12 + x54 - x81 + 10000 x113
       <= 9999
 c127: - x9 + 1.67087942691516 x13 - 0.670879426915164 x14 + 10000 x114
       <= 9997.97667551041
 c128: 0.670879426915164 x13 + 0.329120573084836 x14 - x16 + 10000 x115
       <= 9997.97667551041
 c129: 0.157232719235791 x15 - 0.157232719235791 x16 - x29 + x64 + 10000 x116
       <= 9999
 c130: 0.157232719235791 x15 - 0.157232719235791 x16 - x35 + x63 + 10000 x117
       <= 9999
 c131: 0.157232719235791 x15 - 0.157232719235791 x16 - x41 + x63 + 10000 x118
       <= 9999
 c132: 0.157232719235791 x15 - 0.157232719235791 x16 - x52 + x59 + 10000 x119
       <= 9999
 c133: 0.157232719235791 x15 - 0.157232719235791 x16 - x58 + x60 + 10000 x120
       <= 9999
 c134: - x14 + 0.157232719235791 x15 + 0.842767280764209 x16 + 10000 x121
       <= 9999
 c135: 0.332516994608435 x17 - 0.332516994608435 x18 - x25 + x70 + 10000 x122
       <= 9997.99430513382
 c136: - x5 + 1.33251699460844 x17 - 0.332516994608435 x18 + 10000 x123
       <= 9997.99430513382
 c137: - x7 + 1.33251699460844 x17 - 0.332516994608435 x18 + 10000 x124
       <= 9997.99430513382
 c138: 0.332516994608435 x17 - 0.332516994608435 x18 - x50 + x65 + 10000 x125
       <= 9997.99430513382
 c139: 0.332516994608435 x17 - 0.332516994608435 x18 - x55 + x67 + 10000 x126
       <= 9997.99430513382
 c140: 0.332516994608435 x17 - 0.332516994608435 x18 + x70 - x73 + 10000 x127
       <= 9997.99430513382
 c141: 0.332516994608435 x17 - 0.332516994608435 x18 + x68 - x80 + 10000 x128
       <= 9997.99430513382
 c142: 0.157232719235791 x19 - 0.157232719235791 x20 - x34 + x71 + 10000 x129
       <= 9999
 c143: 0.157232719235791 x19 - 0.157232719235791 x20 - x40 + x72 + 10000 x130
       <= 9999
 c144: 0.157232719235791 x19 - 0.157232719235791 x20 - x46 + x72 + 10000 x131
       <= 9999
 c145: 0.157232719235791 x19 - 0.157232719235791 x20 - x47 + x76 + 10000 x132
       <= 9999
 c146: 0.157232719235791 x19 - 0.157232719235791 x20 - x53 + x75 + 10000 x133
       <= 9999
 c147: 0.157232719235791 x19 - 0.157232719235791 x20 - x70 + x73 + 10000 x134
       <= 9999
 c148: 0.157232689569243 x21 - 0.157232689569243 x22 - x33 + x77 + 10000 x135
       <= 9999
 c149: 0.157232689569243 x21 - 0.157232689569243 x22 - x39 + x78 + 10000 x136
       <= 9999
 c150: 0.157232689569243 x21 - 0.157232689569243 x22 - x45 + x78 + 10000 x137
       <= 9999
 c151: 0.157232689569243 x21 - 0.157232689569243 x22 - x48 + x82 + 10000 x138
       <= 9999
 c152: 0.157232689569243 x21 - 0.157232689569243 x22 - x54 + x81 + 10000 x139
       <= 9999
 c153: 0.157232689569243 x21 - 0.157232689569243 x22 - x68 + x80 + 10000 x140
       <= 9999
 c154: x83 + x89  = 1
 c155: x84 + x93  = 1
 c156: x85 + x98  = 1
 c157: x86 + x103  = 1
 c158: x87 + x109  = 1
 c159: x88 + x122  = 1
 c160: x90 + x116  = 1
 c161: x91 + x129  = 1
 c162: x92 + x135  = 1
 c163: x94 + x117  = 1
 c164: x95 + x123  = 1
 c165: x96 + x130  = 1
 c166: x97 + x136  = 1
 c167: x110 + x120  = 1
 c168: x112 + x133  = 1
 c169: x113 + x139  = 1
 c170: x115 + x121  = 1
 c171: x127 + x134  = 1
 c172: x128 + x140  = 1
Bounds
 0 <= x1 <= 1000000
 0 <= x2 <= 1000000
 0 <= x3 <= 1000000
 0 <= x4 <= 1000000
 0 <= x5 <= 1000000
 0 <= x6 <= 1000000
 0 <= x7 <= 1000000
 0 <= x8 <= 1000000
 0 <= x9 <= 1000000
 0 <= x10 <= 1000000
 0 <= x11 <= 1000000
 0 <= x12 <= 1000000
 0 <= x13 <= 1000000
 0 <= x14 <= 1000000
 0 <= x15 <= 1000000
 0 <= x16 <= 1000000
 0 <= x17 <= 1000000
 0 <= x18 <= 1000000
 0 <= x19 <= 1000000
 0 <= x20 <= 1000000
 0 <= x21 <= 1000000
 0 <= x22 <= 1000000
 0 <= x23 <= 1000000
 0 <= x24 <= 1000000
 0 <= x25 <= 1000000
 0 <= x26 <= 1000000
 0 <= x27 <= 1000000
 0 <= x28 <= 1000000
 0 <= x29 <= 1000000
 0 <= x30 <= 1000000
 0 <= x31 <= 1000000
 0 <= x32 <= 1000000
 0 <= x33 <= 1000000
 0 <= x34 <= 1000000
 0 <= x35 <= 1000000
 0 <= x36 <= 1000000
 0 <= x37 <= 1000000
 0 <= x38 <= 1000000
 0 <= x39 <= 1000000
 0 <= x40 <= 1000000
 0 <= x41 <= 1000000
 0 <= x42 <= 1000000
 0 <= x43 <= 1000000
 0 <= x44 <= 1000000
 0 <= x45 <= 1000000
 0 <= x46 <= 1000000
 0 <= x47 <= 1000000
 0 <= x48 <= 1000000
 0 <= x49 <= 1000000
 0 <= x50 <= 1000000
 0 <= x51 <= 1000000
 0 <= x52 <= 1000000
 0 <= x53 <= 1000000
 0 <= x54 <= 1000000
 0 <= x55 <= 1000000
 0 <= x56 <= 1000000
 0 <= x57 <= 1000000
 0 <= x58 <= 1000000
 0 <= x59 <= 1000000
 0 <= x60 <= 1000000
 0 <= x61 <= 1000000
 0 <= x62 <= 1000000
 0 <= x63 <= 1000000
 0 <= x64 <= 1000000
 0 <= x65 <= 1000000
 0 <= x66 <= 1000000
 0 <= x67 <= 1000000
 0 <= x68 <= 1000000
 0 <= x69 <= 1000000
 0 <= x70 <= 1000000
 0 <= x71 <= 1000000
 0 <= x72 <= 1000000
 0 <= x73 <= 1000000
 0 <= x74 <= 1000000
 0 <= x75 <= 1000000
 0 <= x76 <= 1000000
 0 <= x77 <= 1000000
 0 <= x78 <= 1000000
 0 <= x79 <= 1000000
 0 <= x80 <= 1000000
 0 <= x81 <= 1000000
 0 <= x82 <= 1000000
 0 <= x83 <= 1
 0 <= x84 <= 1
 0 <= x85 <= 1
 0 <= x86 <= 1
 0 <= x87 <= 1
 0 <= x88 <= 1
 0 <= x89 <= 1
 0 <= x90 <= 1
 0 <= x91 <= 1
 0 <= x92 <= 1
 0 <= x93 <= 1
 0 <= x94 <= 1
 0 <= x95 <= 1
 0 <= x96 <= 1
 0 <= x97 <= 1
 0 <= x98 <= 1
 0 <= x99 <= 1
 0 <= x100 <= 1
 0 <= x101 <= 1
 0 <= x102 <= 1
 0 <= x103 <= 1
 0 <= x104 <= 1
 0 <= x105 <= 1
 0 <= x106 <= 1
 0 <= x107 <= 1
 0 <= x108 <= 1
 0 <= x109 <= 1
 0 <= x110 <= 1
 0 <= x111 <= 1
 0 <= x112 <= 1
 0 <= x113 <= 1
 0 <= x114 <= 1
 0 <= x115 <= 1
 0 <= x116 <= 1
 0 <= x117 <= 1
 0 <= x118 <= 1
 0 <= x119 <= 1
 0 <= x120 <= 1
 0 <= x121 <= 1
 0 <= x122 <= 1
 0 <= x123 <= 1
 0 <= x124 <= 1
 0 <= x125 <= 1
 0 <= x126 <= 1
 0 <= x127 <= 1
 0 <= x128 <= 1
 0 <= x129 <= 1
 0 <= x130 <= 1
 0 <= x131 <= 1
 0 <= x132 <= 1
 0 <= x133 <= 1
 0 <= x134 <= 1
 0 <= x135 <= 1
 0 <= x136 <= 1
 0 <= x137 <= 1
 0 <= x138 <= 1
 0 <= x139 <= 1
 0 <= x140 <= 1
Binaries
 x83  x84  x85  x86  x87  x88  x89  x90  x91  x92  x93  x94  x95  x96  x97 
 x98  x99  x100  x101  x102  x103  x104  x105  x106  x107  x108  x109  x110 
 x111  x112  x113  x114  x115  x116  x117  x118  x119  x120  x121  x122  x123 
 x124  x125  x126  x127  x128  x129  x130  x131  x132  x133  x134  x135  x136 
 x137  x138  x139  x140 
End
